\* Source Pyomo model name='Minimum Volume Problem (LP)' *\

min 
x1:
+1000.0 x2
+2000.0 x3
+3000.0 x4
+4000.0 x5
+1000.0 x6
+1414.213562373095 x7
+2236.06797749979 x8
+3162.2776601683795 x9
+4123.105625617661 x10
+1000.0 x11
+2000.0 x12
+3000.0 x13
+1414.213562373095 x14
+1000.0 x15
+1414.213562373095 x16
+2236.06797749979 x17
+3162.2776601683795 x18
+1000.0 x19
+2000.0 x20
+2236.06797749979 x21
+1414.213562373095 x22
+1000.0 x23
+1414.213562373095 x24
+2236.06797749979 x25
+1000.0 x26
+3162.2776601683795 x27
+2236.06797749979 x28
+1414.213562373095 x29
+1000.0 x30
+1414.213562373095 x31
+4123.105625617661 x32
+3162.2776601683795 x33
+2236.06797749979 x34
+1414.213562373095 x35
+1000.0 x36
+1000.0 x37
+2000.0 x38
+3000.0 x39
+4000.0 x40
+1000.0 x41
+2000.0 x42
+3000.0 x43
+1000.0 x44
+2000.0 x45
+1000.0 x46

s.t.

c_e_x47_:
+1 x48
+1 x49
+1 x50
+1 x51
+6.123233995736766e-17 x52
+0.7071067811865475 x53
+0.8944271909999159 x54
+0.9486832980505138 x55
+0.9701425001453319 x56
= 400

c_e_x57_:
-1.0 x48
+1 x58
+1 x59
+1 x60
-0.7071067811865475 x61
+6.123233995736766e-17 x62
+0.7071067811865475 x63
+0.8944271909999159 x64
+0.9486832980505138 x65
= 0

c_e_x66_:
-1.0 x49
-1.0 x58
+1 x67
+1 x68
-0.8944271909999159 x69
-0.7071067811865475 x70
+6.123233995736766e-17 x71
+0.7071067811865475 x72
+0.8944271909999159 x73
= 0

c_e_x74_:
-1.0 x50
-1.0 x59
-1.0 x67
+1 x75
-0.9486832980505138 x76
-0.8944271909999159 x77
-0.7071067811865475 x78
+6.123233995736766e-17 x79
+0.7071067811865475 x80
= 0

c_e_x81_:
-1.0 x51
-1.0 x60
-1.0 x68
-1.0 x75
-0.9701425001453319 x82
-0.9486832980505138 x83
-0.8944271909999159 x84
-0.7071067811865475 x85
+6.123233995736766e-17 x86
= 0

c_e_x87_:
-1.8369701987210297e-16 x52
+0.7071067811865474 x61
+0.8944271909999157 x69
+0.9486832980505138 x76
+0.9701425001453318 x82
+1 x88
+1 x89
+1 x90
+1 x91
= -400

c_e_x92_:
-0.7071067811865477 x53
-1.8369701987210297e-16 x62
+0.7071067811865474 x70
+0.8944271909999157 x77
+0.9486832980505138 x83
-1.0 x88
+1 x93
+1 x94
+1 x95
= 0

c_e_x96_:
-0.8944271909999159 x54
-0.7071067811865477 x63
-1.8369701987210297e-16 x71
+0.7071067811865474 x78
+0.8944271909999157 x84
-1.0 x89
-1.0 x93
+1 x97
+1 x98
= 0

c_e_x99_:
-0.9486832980505139 x55
-0.8944271909999159 x64
-0.7071067811865477 x72
-1.8369701987210297e-16 x79
+0.7071067811865474 x85
-1.0 x90
-1.0 x94
-1.0 x97
+1 x100
= 0

c_e_x101_:
-0.9701425001453319 x56
-0.9486832980505139 x65
-0.8944271909999159 x73
-0.7071067811865477 x80
-1.8369701987210297e-16 x86
-1.0 x91
-1.0 x95
-1.0 x98
-1.0 x100
= 0

c_e_x102_:
+1 x52
+0.7071067811865476 x53
+0.447213595499958 x54
+0.31622776601683805 x55
+0.24253562503633305 x56
= 100

c_e_x103_:
+1.2246467991473532e-16 x48
+0.7071067811865476 x61
+1 x62
+0.7071067811865476 x63
+0.447213595499958 x64
+0.31622776601683805 x65
= 0

c_e_x104_:
+1.2246467991473532e-16 x49
+1.2246467991473532e-16 x58
+0.4472135954999581 x69
+0.7071067811865476 x70
+1 x71
+0.7071067811865476 x72
+0.447213595499958 x73
= 0

c_e_x105_:
+1.2246467991473532e-16 x50
+1.2246467991473532e-16 x59
+1.2246467991473532e-16 x67
+0.316227766016838 x76
+0.4472135954999581 x77
+0.7071067811865476 x78
+1 x79
+0.7071067811865476 x80
= 0

c_e_x106_:
+1.2246467991473532e-16 x51
+1.2246467991473532e-16 x60
+1.2246467991473532e-16 x68
+1.2246467991473532e-16 x75
+0.24253562503633316 x82
+0.316227766016838 x83
+0.4472135954999581 x84
+0.7071067811865476 x85
+1 x86
= 0

c_e_x107_:
-1.0 x52
-0.7071067811865477 x61
-0.4472135954999582 x69
-0.3162277660168381 x76
-0.24253562503633327 x82
= 0

c_e_x108_:
-0.7071067811865475 x53
-1.0 x62
-0.7071067811865477 x70
-0.4472135954999582 x77
-0.3162277660168381 x83
+1.2246467991473532e-16 x88
= 0

c_e_x109_:
-0.44721359549995787 x54
-0.7071067811865475 x63
-1.0 x71
-0.7071067811865477 x78
-0.4472135954999582 x84
+1.2246467991473532e-16 x89
+1.2246467991473532e-16 x93
= 0

c_e_x110_:
-0.3162277660168378 x55
-0.44721359549995787 x64
-0.7071067811865475 x72
-1.0 x79
-0.7071067811865477 x85
+1.2246467991473532e-16 x90
+1.2246467991473532e-16 x94
+1.2246467991473532e-16 x97
= 0

c_e_x111_:
-0.2425356250363329 x56
-0.3162277660168378 x65
-0.44721359549995787 x73
-0.7071067811865475 x80
-1.0 x86
+1.2246467991473532e-16 x91
+1.2246467991473532e-16 x95
+1.2246467991473532e-16 x98
+1.2246467991473532e-16 x100
= -100

c_l_x112_:
+250 x2
-1 x48
>= 0

c_l_x113_:
+250 x3
-1 x49
>= 0

c_l_x114_:
+250 x4
-1 x50
>= 0

c_l_x115_:
+250 x5
-1 x51
>= 0

c_l_x116_:
+250 x6
-1 x52
>= 0

c_l_x117_:
+250 x7
-1 x53
>= 0

c_l_x118_:
+250 x8
-1 x54
>= 0

c_l_x119_:
+250 x9
-1 x55
>= 0

c_l_x120_:
+250 x10
-1 x56
>= 0

c_l_x121_:
+250 x11
-1 x58
>= 0

c_l_x122_:
+250 x12
-1 x59
>= 0

c_l_x123_:
+250 x13
-1 x60
>= 0

c_l_x124_:
+250 x14
-1 x61
>= 0

c_l_x125_:
+250 x15
-1 x62
>= 0

c_l_x126_:
+250 x16
-1 x63
>= 0

c_l_x127_:
+250 x17
-1 x64
>= 0

c_l_x128_:
+250 x18
-1 x65
>= 0

c_l_x129_:
+250 x19
-1 x67
>= 0

c_l_x130_:
+250 x20
-1 x68
>= 0

c_l_x131_:
+250 x21
-1 x69
>= 0

c_l_x132_:
+250 x22
-1 x70
>= 0

c_l_x133_:
+250 x23
-1 x71
>= 0

c_l_x134_:
+250 x24
-1 x72
>= 0

c_l_x135_:
+250 x25
-1 x73
>= 0

c_l_x136_:
+250 x26
-1 x75
>= 0

c_l_x137_:
+250 x27
-1 x76
>= 0

c_l_x138_:
+250 x28
-1 x77
>= 0

c_l_x139_:
+250 x29
-1 x78
>= 0

c_l_x140_:
+250 x30
-1 x79
>= 0

c_l_x141_:
+250 x31
-1 x80
>= 0

c_l_x142_:
+250 x32
-1 x82
>= 0

c_l_x143_:
+250 x33
-1 x83
>= 0

c_l_x144_:
+250 x34
-1 x84
>= 0

c_l_x145_:
+250 x35
-1 x85
>= 0

c_l_x146_:
+250 x36
-1 x86
>= 0

c_l_x147_:
+250 x37
-1 x88
>= 0

c_l_x148_:
+250 x38
-1 x89
>= 0

c_l_x149_:
+250 x39
-1 x90
>= 0

c_l_x150_:
+250 x40
-1 x91
>= 0

c_l_x151_:
+250 x41
-1 x93
>= 0

c_l_x152_:
+250 x42
-1 x94
>= 0

c_l_x153_:
+250 x43
-1 x95
>= 0

c_l_x154_:
+250 x44
-1 x97
>= 0

c_l_x155_:
+250 x45
-1 x98
>= 0

c_l_x156_:
+250 x46
-1 x100
>= 0

c_l_x157_:
+350 x2
+1 x48
>= 0

c_l_x158_:
+350 x3
+1 x49
>= 0

c_l_x159_:
+350 x4
+1 x50
>= 0

c_l_x160_:
+350 x5
+1 x51
>= 0

c_l_x161_:
+350 x6
+1 x52
>= 0

c_l_x162_:
+350 x7
+1 x53
>= 0

c_l_x163_:
+350 x8
+1 x54
>= 0

c_l_x164_:
+350 x9
+1 x55
>= 0

c_l_x165_:
+350 x10
+1 x56
>= 0

c_l_x166_:
+350 x11
+1 x58
>= 0

c_l_x167_:
+350 x12
+1 x59
>= 0

c_l_x168_:
+350 x13
+1 x60
>= 0

c_l_x169_:
+350 x14
+1 x61
>= 0

c_l_x170_:
+350 x15
+1 x62
>= 0

c_l_x171_:
+350 x16
+1 x63
>= 0

c_l_x172_:
+350 x17
+1 x64
>= 0

c_l_x173_:
+350 x18
+1 x65
>= 0

c_l_x174_:
+350 x19
+1 x67
>= 0

c_l_x175_:
+350 x20
+1 x68
>= 0

c_l_x176_:
+350 x21
+1 x69
>= 0

c_l_x177_:
+350 x22
+1 x70
>= 0

c_l_x178_:
+350 x23
+1 x71
>= 0

c_l_x179_:
+350 x24
+1 x72
>= 0

c_l_x180_:
+350 x25
+1 x73
>= 0

c_l_x181_:
+350 x26
+1 x75
>= 0

c_l_x182_:
+350 x27
+1 x76
>= 0

c_l_x183_:
+350 x28
+1 x77
>= 0

c_l_x184_:
+350 x29
+1 x78
>= 0

c_l_x185_:
+350 x30
+1 x79
>= 0

c_l_x186_:
+350 x31
+1 x80
>= 0

c_l_x187_:
+350 x32
+1 x82
>= 0

c_l_x188_:
+350 x33
+1 x83
>= 0

c_l_x189_:
+350 x34
+1 x84
>= 0

c_l_x190_:
+350 x35
+1 x85
>= 0

c_l_x191_:
+350 x36
+1 x86
>= 0

c_l_x192_:
+350 x37
+1 x88
>= 0

c_l_x193_:
+350 x38
+1 x89
>= 0

c_l_x194_:
+350 x39
+1 x90
>= 0

c_l_x195_:
+350 x40
+1 x91
>= 0

c_l_x196_:
+350 x41
+1 x93
>= 0

c_l_x197_:
+350 x42
+1 x94
>= 0

c_l_x198_:
+350 x43
+1 x95
>= 0

c_l_x199_:
+350 x44
+1 x97
>= 0

c_l_x200_:
+350 x45
+1 x98
>= 0

c_l_x201_:
+350 x46
+1 x100
>= 0

bounds
   0 <= x2 <= +inf
   0 <= x3 <= +inf
   0 <= x4 <= +inf
   0 <= x5 <= +inf
   0 <= x6 <= +inf
   0 <= x7 <= +inf
   0 <= x8 <= +inf
   0 <= x9 <= +inf
   0 <= x10 <= +inf
   0 <= x11 <= +inf
   0 <= x12 <= +inf
   0 <= x13 <= +inf
   0 <= x14 <= +inf
   0 <= x15 <= +inf
   0 <= x16 <= +inf
   0 <= x17 <= +inf
   0 <= x18 <= +inf
   0 <= x19 <= +inf
   0 <= x20 <= +inf
   0 <= x21 <= +inf
   0 <= x22 <= +inf
   0 <= x23 <= +inf
   0 <= x24 <= +inf
   0 <= x25 <= +inf
   0 <= x26 <= +inf
   0 <= x27 <= +inf
   0 <= x28 <= +inf
   0 <= x29 <= +inf
   0 <= x30 <= +inf
   0 <= x31 <= +inf
   0 <= x32 <= +inf
   0 <= x33 <= +inf
   0 <= x34 <= +inf
   0 <= x35 <= +inf
   0 <= x36 <= +inf
   0 <= x37 <= +inf
   0 <= x38 <= +inf
   0 <= x39 <= +inf
   0 <= x40 <= +inf
   0 <= x41 <= +inf
   0 <= x42 <= +inf
   0 <= x43 <= +inf
   0 <= x44 <= +inf
   0 <= x45 <= +inf
   0 <= x46 <= +inf
   -inf <= x48 <= +inf
   -inf <= x49 <= +inf
   -inf <= x50 <= +inf
   -inf <= x51 <= +inf
   -inf <= x52 <= +inf
   -inf <= x53 <= +inf
   -inf <= x54 <= +inf
   -inf <= x55 <= +inf
   -inf <= x56 <= +inf
   -inf <= x58 <= +inf
   -inf <= x59 <= +inf
   -inf <= x60 <= +inf
   -inf <= x61 <= +inf
   -inf <= x62 <= +inf
   -inf <= x63 <= +inf
   -inf <= x64 <= +inf
   -inf <= x65 <= +inf
   -inf <= x67 <= +inf
   -inf <= x68 <= +inf
   -inf <= x69 <= +inf
   -inf <= x70 <= +inf
   -inf <= x71 <= +inf
   -inf <= x72 <= +inf
   -inf <= x73 <= +inf
   -inf <= x75 <= +inf
   -inf <= x76 <= +inf
   -inf <= x77 <= +inf
   -inf <= x78 <= +inf
   -inf <= x79 <= +inf
   -inf <= x80 <= +inf
   -inf <= x82 <= +inf
   -inf <= x83 <= +inf
   -inf <= x84 <= +inf
   -inf <= x85 <= +inf
   -inf <= x86 <= +inf
   -inf <= x88 <= +inf
   -inf <= x89 <= +inf
   -inf <= x90 <= +inf
   -inf <= x91 <= +inf
   -inf <= x93 <= +inf
   -inf <= x94 <= +inf
   -inf <= x95 <= +inf
   -inf <= x97 <= +inf
   -inf <= x98 <= +inf
   -inf <= x100 <= +inf
end
